Minimize
  - 22 y_0 - 19 y_1 - 22 y_3 - 15 y_4 - 24 y_5 - 27 y_6 - 30 y_7 - 28 y_8
   - 16 y_9 + 203 Constant
Subject To
 c_0: y_1 = 1
 c_1_0: y_0 + y_6 + y_8 >= 1
 c_1_1: y_1 + y_9 >= 1
 c_1_2: y_2 >= 1
 c_1_3: y_3 + y_9 >= 1
 c_1_4: y_4 >= 1
 c_1_5: y_5 >= 1
 c_1_6: y_0 + y_6 + y_7 + y_8 >= 1
 c_1_7: y_6 + y_7 + y_8 >= 1
 c_1_8: y_0 + y_6 + y_7 + y_8 >= 1
 c_1_9: y_1 + y_3 + y_9 >= 1
Bounds
 Constant = 1
Binaries
 y_0 y_1 y_2 y_3 y_4 y_5 y_6 y_7 y_8 y_9
End
